letting x be 5
letting y be 5

letting treecount be 5

letting colsums be [1,0,1,1,2]
letting rowsums be [1,1,1,1,1]

letting trees be 
[
    [0,0,0,0,0],
    [0,0,0,0,4],
    [1,0,2,3,0],
    [0,0,0,0,0],
    [0,0,5,0,0]
]